(set-logic ALL)
(declare-fun seed0_T_1 () Int)
(declare-fun seed0_T_2 () Bool)
(declare-fun seed0_var_0xINPUT_37547 () String)
(assert (and (or (>= seed0_T_1 (str.len seed0_var_0xINPUT_37547)) (not (> (div seed0_T_1 seed0_T_1) (mod seed0_T_1 seed0_T_1)))) (or (= seed0_T_2 (= seed0_T_1 0)) (=> (< (* seed0_T_1 seed0_T_1) (- seed0_T_1 669)) (> (+ seed0_T_1 24) (mod seed0_T_1 seed0_T_1)))) (or seed0_T_2 (and (< (mod seed0_T_1 seed0_T_1) (mod seed0_T_1 seed0_T_1)) (distinct (* seed0_T_1 seed0_T_1) (div seed0_T_1 seed0_T_1))))))
(check-sat)
(exit)